
 102   30
  10   10   10   10   10   10   10   10   10   10   10   10   10   10   10   10   10   10   10   10   10   10   10   10   10   10   10   10   10   10

   0   0   0   0   0   0   0   0   0   0   0   0   0   0   0   0   0   0   0   0   0   0   0   0   0   0   0   0   0   0   0  21 2 3 4 5 6 7 8 9 11 13 14 15 16 18 19 21 23 27 30 35 37 
   8   0   0   0   0   0   0   0   0   0   0   0   1   1   0   0   1   0   0   0   0   0   0   0   0   0   0   0   0   0   0  15 53 51 50 49 48 46 44 43 36 34 33 32 26 17 10 
  10   0   0   0   0   0   0   0   0   0   1   1   0   5   0   0   7   0   0   0   3   0   0   0   1   0   0   0   0   0   2  19 98 97 73 71 67 62 56 55 54 53 50 49 47 43 42 36 33 31 26 
   1   0   0   0   0   0   0   0   0   0   8   0   0   0   0   0   0   0   0   0   0   0   0   0   0   0   0   0   0   0   0  19 73 72 68 67 62 59 58 56 55 54 53 49 47 45 43 40 36 25 22 
  10   2   0   0   0   0   0   0   0   0   0   0   0   8   0   0   0   3   0   0   0   0   0   0   0   0   0   0   0   0   0  17 100 98 73 68 67 65 56 49 43 42 39 38 34 33 31 29 24 
   5   0   0   1   0   0   0   0   0   1   0   0   0   0   0   0   0   0   2   3   0   1   0   0   0   0   1   0   0   0   6  13 101 100 58 55 54 53 51 48 44 43 41 33 12 
  10   0   0   0   0   0   0   0   0   0   0   0   0   8   0   0   0   0   0   0   0   0   0   0   0   0   0   0   0   0   7  16 68 67 66 65 64 61 58 56 55 53 51 46 42 41 40 20 
   7   0   0   0   0   0   0   0   0   0   0   0   0   0   0   2   0   0   0   0   3   0   0   0   0   0   0   0   0   0   0  12 100 97 73 64 59 54 49 43 42 41 33 31 
   2   0   0   0   0   4   0   0   0   8   0   0   0   0   0   0   0   0   2   0   0   0   0   0   0   0   0   0   0   0  10  13 98 97 90 71 67 64 59 50 49 43 42 33 31 
   4   0   0   0   0   0   0   2   0   0   0   0   0   0   0   0   0   0   0   0   0   0   0   0   0   0   0   0   0   0   0  18 101 100 98 97 96 95 70 67 64 61 60 59 56 55 54 47 42 28 
   5   0   1   0   0   0   0   0   0   0   0   0   0   5   0   0   0   0   0   5   0   0   4   0   0   0   0   0   0   0   0  13 100 73 72 64 61 57 56 55 53 49 41 38 33 
   7   0   0   0   0   0   0   0   0   9   0   0   0   0   0   0   0   0   0   0   0   0   0   0   0   0   0   0   0   0   0  19 99 98 97 96 92 87 73 72 71 70 67 65 63 62 61 60 59 56 36 
   1   0   0   0   0   0   0   0   0   0   0   0   5   0   0   0   0   2   0   3   0   0   0   0   0   0   0   1   0   0   0  15 99 98 95 94 90 67 65 64 60 58 56 54 51 49 43 
   9   0   0   0   0   0   0   0   0   0   0   3   0   0   1   0   8   0   0   0   0   0   0   0   0   0   3   0   0   0   0  15 100 98 97 96 94 92 72 70 69 63 60 55 52 47 36 
  10   0   0   0   0   0   1   0   0   0   6   0   0   0   0   6   6   0   0  10   5   0   0   0   9   0   0   0   0   0   8  14 99 98 97 95 89 71 69 65 63 61 59 58 49 40 
   5   0   0   0   0   0   0   0   0   0   0   0   0   0   9   0   0  10   0   0   4   6   0   2   0   0   0   0   0   0   0  11 99 72 71 67 65 59 54 53 48 46 45 
   1   0   0   0   0   0   7   0   0   0   0   0   0   0   0   0   0   0   0   0   0   0   0   0   0   0   0   0   0   0   0  10 101 100 73 72 69 64 55 52 38 29 
   8   7   0   0   0   0   0   0   1   0   0   0   0   0   0   9   0   0   0   0   0   0   0   0   0   0   0   0   0   0   0  13 100 96 95 94 92 65 63 62 58 57 55 46 42 
   4   6   0   5   0   0   0   0   0   0   0   5   0   0   0   0   6   0   0   0   0   0   0   0   0   0   7   0   0   0   0  13 98 95 94 91 87 82 71 61 59 58 56 47 43 
   7   6   0   0   2   0   0   0   7   0   0   5   0   0   0   0   0   0   0   0   0   0   0   0   0   0   0   0   0   0   0   9 99 97 95 71 69 59 57 49 33 
   2   0   0   0   0   0   0   0   0   0   0   0   0   0   0   0   0   3   0   0   7   0   0   0   0   0   0   0   0   0   0  14 101 98 96 94 93 86 71 70 69 66 61 58 52 42 
   1   0   0   0   0   0   0   0   0   0   0   0   4   0   0   8   5   0   0   0   0   0   0   0   0   0   0   0   0   0   0   8 98 97 91 90 69 64 50 33 
   9   0   0   0   0   0   0   0   0   0   0   0   0   0   0   0   6   0  10   0   0   0   0   0   5   0   0   0   0   0   0  15 100 97 89 88 86 84 83 78 71 69 61 60 57 54 48 
   4   0   0   0   0   0   0   0   6   0   0   0   0   0   5   0   0   0   0   3   4   0   0   0   0   1   0   0   0   0   0  12 95 89 88 78 72 70 69 64 62 57 55 52 
   9   0   7   0   0   6   0   0   0   0   0   0   0   0   9   0   0   0   0   0   0   0   0   0   0   0   0   0   4   0   5   7 98 97 90 89 79 69 33 
   3   7   0   0   0   0   0   0   0   0   0   0   0   0   6   0   0   0   0  10   8   0   0   0   0   0   0   8   0   0   0  18 99 96 95 93 92 91 87 86 84 83 80 78 74 69 68 61 60 59 
   9   0   6   0   0   0   2   0   0   0   0   0   5   0   0   0   0   0   0   0   0   0   0   0   0   0   0   0   0   0   0   8 100 95 91 87 84 59 49 43 
  10   0   0   0   5   5   0   6   0   6   0   0   0   0   0   0   0   0   0   0   0   0   0   5   0   0   5   0   5   0   0  17 99 94 92 91 90 89 88 87 84 80 79 77 76 75 72 71 58 
   4   0   0   0   0   0   0   0   0   0   0   0   0   0   0   0   0   0   0   0   6   0   0   0   0   0   0   0   0   0   0  17 97 95 94 93 92 88 87 86 85 83 82 80 79 78 75 71 70 
   2   0   0   0   0   0   0   7   0   0   0   0   7   0   0   0   8   0   0   0   0   0   0   0   0   0   0   0   0   0  10  16 97 91 90 89 88 87 86 85 84 81 80 78 75 74 69 64 
   3   7   0   0   0   3   0   0   3   0   4   0   0   0   0   0   4   0   0   4   0   0   0   0   0   0   4   0   0   1   0  13 101 96 91 86 84 82 80 79 75 70 69 63 58 
   9   0   0   0   0   0   9   0   0   5   0   0   0   0   0   0   0   0   0   0   0   0   0   0   0   0   0   8   0   0   0  11 99 94 92 91 89 86 81 78 77 64 52 
  10   0   0   0   0   0   6   0   0   0   0   0   0   0   0   0   0   2   0   0   0   0   0   3   0   0   0   0   0   0   7  10 94 93 92 88 86 78 74 70 60 52 
   9   0   0   5   0   0   5   0   0   0   0   9   0   0   0   5   0   0   7   0   0   0   0   0   0   0   0   0   0   0   0  12 97 92 91 90 87 86 82 80 78 74 61 60 
   9   0   0   0   0   0   0   0   0   0   0   0  10   0   0   0   0   7   0   9   0   0   0   0   0   4   0   0   0   0   0  12 89 88 87 83 82 79 78 77 76 74 67 57 
   5   0   0   0   0  10   0   0   0   0   0   0   5   0   0   0   0   0   7   0   0   0   0   0   0   0   0   8   0   0   0  11 95 89 85 84 83 82 80 78 74 64 57 
   2  10   0   0   0   0   0   0   0   0   0   0   0   0   0   1   0   0   0   0   8   0   0   0   0   0   0   0   0   0   0  15 98 89 88 87 86 84 83 82 81 80 78 76 75 74 69 
   1   0   0   0   0   0   0   0   0   0   0   0   0   0   8   0   8   0   0   0   0   8   0   0   0   7   0   0   0   0   0   8 90 89 88 85 80 78 59 54 
   8   0   8   0   2   0   0   0   0   8   7   0   0   0   0   0   0   0   0   0   0   6   5   0   0   9   0   0   0   0   0  12 97 93 92 90 89 88 84 81 80 78 69 59 
   9   0   0   0   0   0   0   0   0   0   0   0   0   0   0   0   0   0   0   6   0   0   0   0   0   5   0   0   0   0   0  11 101 100 94 93 88 83 82 79 78 76 57 
   7   8   0   0   0   0   0   0   0   0   0   0   6   0   0   0   0   0   0   0   0   0   0   0   0   0   5   4   0   0   8  12 98 95 92 90 89 88 86 81 80 76 71 69 
   7   7   0   7   0   6   0   0   0   0   0   0   0   0   0   0   0   5   0   0   0   0   0   0   0   0   0   0   0   8   0  12 99 91 89 88 84 83 81 78 76 75 74 72 
   4   0   7   0   0   0   5   7   0   0   0   0   0   0   0   0   8   0   0   7   0   0   0   0   0   0   0   0   0   0   0  11 96 93 92 89 88 85 83 80 77 75 66 
  10   0   0   0   0   6   0   0   0   0   0   0   0   0   5   0   0   0   0   0   0   0   0   0   0   0   0   0   0   0   3  11 97 87 86 84 83 81 80 79 78 75 63 
   8   0   0   0   0   0   0   0   0   9   0   0   0   0   0   0   0   0   8   0   0   0   0   0   4   0   0   0   0   0   0   9 94 89 88 86 85 81 78 74 61 
   9   0   0   0   0   0   7   6   0   4   0   0   0   0   0   0   0   0   6   0   0   0   0   5   0   0   0   0   0   0   4  10 97 90 83 82 80 79 78 75 74 69 
   6   6   0   0   8   0   0   0   0   0   0   0   0   0   0   0   0   0   0   0   0   0   0   0   0  10   0   0   0   0   0   9 99 93 90 86 80 77 75 74 65 
   8   0   0   5   0   0   0   0   0   0   6   0   0   0   0   0   0   0   0   0   0   0   0   0   0   0   0   0   5   0   0   9 98 96 94 93 87 81 79 76 74 
   1   0   0   0   0   0   0   0   0   0   8   0   5   0   0   0   0   0   0   0   6   0   0   0   0   0   0   0   0   0   0   8 96 92 86 85 80 78 74 70 
   1   5   0   9   0   0   0   0   8   0   6   0   0   0   0   0   0   0   0   0   0   0   0   5   0   0   0   0   0   0   0   8 100 95 89 86 84 83 77 74 
  10   0   0   0   0   0   0   0   0   0   0   0   0   0   0   0   0   0   0   0   0   0   0  10   0   0   0   0   6   0   0   6 85 82 80 78 75 69 
   4   0   0   0   0   0   0   0   0   0   0   0   0   0   0   0   0   0   0   9   0   0   0   0   0   0   0   6   0   0   0   6 87 84 83 82 80 75 
   1   0   0   0   5   4   0   0   0   0   0   0   0   0   0   0   0   0   0   0   0   5   0   0   0   0   0   0   0   8   0   6 95 88 87 82 75 74 
   1   0   0   0   7   0   0   0   0   0   0   0   8   0   0   0   0   0   0   5   0   0   0   0   0   0   0   0   0   0   0   4 87 82 75 63 
   3   0   0   0   8   0   0   0   0   0   0   0   0   0   0   0   0   0   0   0  10   0   0   5   0   0   0   0   0   0   4   5 87 82 81 77 74 
   9   0   0   0   0   0   0   0   0   7   0   0   0   0   0   0   0   0   0   0   0   0   0   0   0   0   0   0   0   0   0   5 88 85 84 75 74 
   7   1   0   6   8   0   0   0   0   0   0   0   0   0   0   0   3   0   0   0   6   0   0   0   0   0   0   0   0   0   0   4 91 90 81 75 
   1   0   0   0   0   6   0   4   0   0   0   6   0   2   0   7   0   0   0   0   0   0   0   0   5   0   6   0   0   8   4   4 83 81 78 74 
   1   0   0   0   0   0   0   0   0   0   0  10   0   0   0   0   6   0   0   0   0   0   5   0   0   0   7   0   4   0   0   3 79 77 76 
   4   0   0   0   0   0   0   0   0   0   9   0   6   0   0   0   0   6   0   0   0   0   0   0   6   0   0   5   0   0   0   3 85 81 75 
   7   0   0   0   0   0   0   0   0   0   0   0   0   7   0   0   0   0   0   0   0   0   0   0   0   0   0   0   0   0   0   3 79 77 76 
  10   0   0   0   0   0   0   0   0   0   0   0   7   0   0   0   0   0   0   0   0   0   0   0   0   0   7   0   0   0   0   3 86 79 76 
   7   3   0   0  10   0   0   0   0   0   0   0   0   0   0   0   0   0   0   0   0   0   0   0   0   0   0   0   5   0   0   2 77 74 
   3   0   0   0   0   0   0   0   0   0   0   0   0  10   0   0   0   0   0   0   0   0   0   0   0   5   0   0   0   0   0   2 79 76 
   7   5   0   0   5   7   8   0   0   0   0   0   7   0   0   0   0   9   0   0   0   0   0   0   0   0   0   0   0   5   0   2 84 79 
   7   0   0   0   0   0   0   0   5   0   0   0   0   0   0   0   0   0   0   0   0   0   0   7   0   0   0   0   0   0   0   2 78 76 
   4   0   0   0   8   0   0   0   0   0   0  10   0   3   0   0   0   0   0   0   0   0   0   0   0   0   9   0   9   0   0   2 91 80 
   5   0   0   0   0   0   0   0   8   0   0   0   7   0   0   8   0   0   0   0   0   0  10   0   0   5   0   0   0   4   0   2 82 75 
   5   0   0   9   0   0   9   0   8   0   0   8   0   0   0  10   0   9   0   0   0   0   0   0   7   0   0   0   0   0   6   1 77 
  10   0   0   0   7   0   0   0   0   0   0   0   0   0   0   0   0   0   0   0   0   0   0   0   0   0   5   9   0   0   0   1 76 
  10   0   0   0   0   0   0   0   0   0   0   4   0   0   0   0   6   8  10   3   0   0   0   0   8   0   0   0   0   0   0   1 74 
   7   0   5   0   0   0   0   0   9   0   5   0   0   0   0   4   0   0   0   0   0   0   0   0   0   0   0   0   0   0   0   1 85 
   4   4   0   0   0   0   0   0   0   0   0   0   0   0   0   0   0   0   0   0   0   0  10   0   0   0   0   0   0   0   0   1 75 
   7   0   0   0   0   0   0   0   0   0   0   0   0   0   0   0   0   0   0   0   0   0   4   0   0   0   0   0   0   9   0   1 102
   6   0   0   7   0   0   0   0   7   7   0   0   0   9   0   0   0   0   0   0   0   0   0   0   0   0   0   0   0  10   0   1 102
   5   0   0   5   0   0   8   0   0   0   0   0   0   0   0   0   0   0   4   0   0   0   0   0   0   0   0   5   0   0   0   1 102
   5   0   0   0   0   0   0   0   0   0   0   0   0   0   0   0   0   0   0   0   0   0   0   0   0   0   9   0  10   0   5   1 102
   1   0   0   0   0   0   9   0   0   0   0   0   0   6   0   0   6   0   0   0   0   0   0   0   0   0   0   0   0   0   0   1 102
   1   0   0   0   0   0   0   0   0   4   0   0   0   0   0   0   0   0   0   0   0   0   0   0   0   0   0   0   0   0   0   1 102
   4   0   0   0   0   0   0   0   0   0   0   0   0   0   0   0   0   0   0   0   0   0   0   0   0   0   0   0   0   0   7   1 102
   8  10   0   0   0   0   0   0   0   0   0   8   0   0   0   0   0   0   0   6   0   0   0   0   0   0   0   0   0   0   0   1 102
   8   7   8   0   0   0   0   0   0   0   0   0   0   0   0   0   0   0   0   0   0   0   0   0   6   0   0   0   0   3   0   1 102
   5   0   0   0   0   0   4   4   0   0   0   0   0   0   0   0   0   0   7   0   0   0   0   0   0   0   0   8   0   6   0   1 102
  10   0   0   0   0   0   0   8   0   0   0   0   0   6   0   6  10   6   0   0   8   0   0   0   0   0   0   0   6   6   0   1 102
   7   0   0   4   0   0   0   0   0   0   0   8   0   0   0   0   0   0   0   0   0   0   0   0   0   0   0   0   0   4   7   1 102
   1   5   0   0   0   0   0   0   0   6   0   0   0   0   0   7   5   0   0   0   0   8   0   8   0   0   0   0   6   0   0   1 102
   7   7   0   0   0   0   0   0   0   0   0   5   0   0   0   0   0   0   0   0   0   0   0   8   8   0   0   0   4   0   0   1 102
   3   0   0   0   0   0   0   0   7   0   0   0   5   0   0   0   0   0   0   0   0   0   0   0   0   8  10   0   0   0   0   1 102
   3   0   0   0   0   0   0   6   5   0   0   0   0   0   0   5   0   8   0   0   0   0   0   0   0   8   0   0   5   0   0   1 102
   3   0   0   0   4   0   0   0   0   0   0   2   0   0   0   0   0   0   0   0   0   5   0   0   7   0   0   0   0   0   0   1 102
   3   0   0   0   0   0   0   0   0   0   0   0   0   0   0   0   8   0   0   0   0   0   0   0   0   0   0   0   0   0   0   1 102
   8   0   0   0   0   0   0   0   6   0   0   0   0   0   0   0   0   0   0   0   0   0   0   0   0   0   0   0   0   0   0   1 102
   7   8   0   9   0   0   6   0   0   0   0   0   0   0   0   0   3   0   0   7   0   0   0   8   0   0   0   0   0   0   0   1 102
   8   5   0   0   7   0   0   0   0   0   0   0   0   0   0   0   0   0   0   0   0   0   0   0   0   0   0   0   0   0   0   1 102
   8   0   0   0   0  10   3   0   0   0   0   0   0   0   0   0   0   0   0   0   0   0   0   0   0   0   0   0   0   6   0   1 102
   8   0   0   5   0   0   0   0   0   0   0   0   7   0   0   0   0   0   0   0   0   0   0   0   0   0   0   0   6   0   0   1 102
   3   0   0   0   0   5   7   0   0   0   0   0   0   0   0   0   0   0   3   0   0   0   0   0   0   5   0   0   0   0   8   1 102
  10   0   0   0   0   0   0   0   0   0   0   0   7   0   0   0   0   0   0   0   0   0   0   0   0   0   0   4   0   0   0   1 102
   5   0   0   0   0   0   0   0   0   5   0   0   0   8   5   0   0   0   0   0   6   0   0   0   0   5   0   0   0   0   0   1 102
   2   0   6   7   0   0   0  10   4   5   0   0   0   0   0   0   0   0   0   0   0   0   4   0   0   0   0   0   9   0   0   1 102
   4   0   0   0   4   0   0   0   0   0   0   0   0   0   0   0   0   0   0   0   0   9   0   0   0   0   0   0   0   0   3   1 102
   0   0   0   0   0   0   0   0   0   0   0   0   0   0   0   0   0   0   0   0   0   0   0   0   0   0   0   0   0   0   0   0 
